NAME: PointSet_Angle_30_6
TYPE: TSP
COMMENT: Points chosen discrete uniformly at random out of ${0, \ldots, 500}^2$.
DIMENSION: 30
EDGE_WEIGHT_TYPE: EUC_2D
NODE_COORD_SECTION
1 357 459
2 354 27
3 176 86
4 24 406
5 153 76
6 444 402
7 200 406
8 156 500
9 380 158
10 358 300
11 377 277
12 420 86
13 404 411
14 319 135
15 61 112
16 104 164
17 71 458
18 191 494
19 44 462
20 399 197
21 37 342
22 345 238
23 494 0
24 484 119
25 405 88
26 420 27
27 365 85
28 114 14
29 497 179
30 396 304
EOF
